100
128
9
35
14
13
3
2
15
35
13
15
10
5
14
21
32
17
3
8
30
6
8
3
6
5
4
10
2
25
15
32
15
3
23
7
35
10
22
19
10
28
22
13
13
49
48
5
35
45
57
34
38
1
42
3
43
11
53
46
52
64
1
51
21
53
4
2
7
56
3
23
5
1
20
1
62
2
43
8
60
51
3
53
18
60
3
50
14
1
46
2
15
1
3
17
56
36
64
64
36
32